100 8
462 649
382 720
638 430
611 203
306 661
171 523
798 474
104 453
463 707
474 870
111 349
683 435
578 927
643 127
882 401
648 980
762 25
819 358
666 286
578 287
813 136
232 618
791 177
854 261
221 694
277 142
405 821
550 209
694 11
464 626
569 650
410 274
443 690
151 657
501 753
434 653
374 827
660 971
473 914
290 546
107 294
334 702
869 378
585 135
412 516
124 342
834 411
612 430
614 198
533 162
904 313
678 109
424 848
503 728
201 342
428 99
696 147
844 519
233 706
870 485
794 262
429 149
320 215
575 806
669 929
174 584
353 767
744 55
815 437
680 69
575 643
188 800
172 647
895 310
322 563
445 214
412 670
425 284
645 366
682 52
321 686
338 649
200 363
542 137
421 634
298 755
398 172
564 359
258 371
500 263
252 569
143 838
677 901
217 757
130 784
257 718
399 633
456 953
303 764
498 253
